(set-info :smt-lib-version 2.6)
(set-logic QF_AX)
(set-info :source |
Benchmarks used in the followin paper:
Big proof engines as little proof engines: new results on rewrite-based satisfiability procedure
Alessandro Armando, Maria Paola Bonacina, Silvio Ranise, Stephan Schulz. 
PDPAR'05
http://www.ai.dist.unige.it/pdpar05/


|)
(set-info :category "crafted")
(set-info :status unsat)
(declare-sort Index 0)
(declare-sort Element 0)
(declare-fun a_558 () (Array Index Element))
(declare-fun a_559 () (Array Index Element))
(declare-fun a_560 () (Array Index Element))
(declare-fun a_561 () (Array Index Element))
(declare-fun a_562 () (Array Index Element))
(declare-fun a_563 () (Array Index Element))
(declare-fun a_564 () (Array Index Element))
(declare-fun a_565 () (Array Index Element))
(declare-fun a_566 () (Array Index Element))
(declare-fun a_567 () (Array Index Element))
(declare-fun a_568 () (Array Index Element))
(declare-fun a_569 () (Array Index Element))
(declare-fun a_570 () (Array Index Element))
(declare-fun a_571 () (Array Index Element))
(declare-fun a_572 () (Array Index Element))
(declare-fun a_573 () (Array Index Element))
(declare-fun a_574 () (Array Index Element))
(declare-fun a_575 () (Array Index Element))
(declare-fun a_576 () (Array Index Element))
(declare-fun a_577 () (Array Index Element))
(declare-fun a_578 () (Array Index Element))
(declare-fun a_579 () (Array Index Element))
(declare-fun a_580 () (Array Index Element))
(declare-fun a_581 () (Array Index Element))
(declare-fun a_582 () (Array Index Element))
(declare-fun a_583 () (Array Index Element))
(declare-fun a_584 () (Array Index Element))
(declare-fun a_585 () (Array Index Element))
(declare-fun a_586 () (Array Index Element))
(declare-fun a_587 () (Array Index Element))
(declare-fun a_588 () (Array Index Element))
(declare-fun a_589 () (Array Index Element))
(declare-fun a_590 () (Array Index Element))
(declare-fun a_591 () (Array Index Element))
(declare-fun a_592 () (Array Index Element))
(declare-fun a_593 () (Array Index Element))
(declare-fun a_594 () (Array Index Element))
(declare-fun a_595 () (Array Index Element))
(declare-fun a_596 () (Array Index Element))
(declare-fun a_597 () (Array Index Element))
(declare-fun a1 () (Array Index Element))
(declare-fun e1 () Element)
(declare-fun e10 () Element)
(declare-fun e11 () Element)
(declare-fun e12 () Element)
(declare-fun e13 () Element)
(declare-fun e14 () Element)
(declare-fun e15 () Element)
(declare-fun e16 () Element)
(declare-fun e17 () Element)
(declare-fun e18 () Element)
(declare-fun e19 () Element)
(declare-fun e2 () Element)
(declare-fun e20 () Element)
(declare-fun e3 () Element)
(declare-fun e4 () Element)
(declare-fun e5 () Element)
(declare-fun e6 () Element)
(declare-fun e7 () Element)
(declare-fun e8 () Element)
(declare-fun e9 () Element)
(declare-fun i1 () Index)
(declare-fun i10 () Index)
(declare-fun i11 () Index)
(declare-fun i12 () Index)
(declare-fun i13 () Index)
(declare-fun i14 () Index)
(declare-fun i15 () Index)
(declare-fun i16 () Index)
(declare-fun i17 () Index)
(declare-fun i18 () Index)
(declare-fun i19 () Index)
(declare-fun i2 () Index)
(declare-fun i20 () Index)
(declare-fun i3 () Index)
(declare-fun i4 () Index)
(declare-fun i5 () Index)
(declare-fun i6 () Index)
(declare-fun i7 () Index)
(declare-fun i8 () Index)
(declare-fun i9 () Index)
(assert (= a_558 (store a1 i1 e1)))
(assert (= a_559 (store a_558 i2 e2)))
(assert (= a_560 (store a_559 i3 e3)))
(assert (= a_561 (store a_560 i4 e4)))
(assert (= a_562 (store a_561 i5 e5)))
(assert (= a_563 (store a_562 i6 e6)))
(assert (= a_564 (store a_563 i7 e7)))
(assert (= a_565 (store a_564 i8 e8)))
(assert (= a_566 (store a_565 i9 e9)))
(assert (= a_567 (store a_566 i10 e10)))
(assert (= a_568 (store a_567 i11 e11)))
(assert (= a_569 (store a_568 i12 e12)))
(assert (= a_570 (store a_569 i13 e13)))
(assert (= a_571 (store a_570 i14 e14)))
(assert (= a_572 (store a_571 i15 e15)))
(assert (= a_573 (store a_572 i16 e16)))
(assert (= a_574 (store a_573 i17 e17)))
(assert (= a_575 (store a_574 i18 e18)))
(assert (= a_576 (store a_575 i19 e19)))
(assert (= a_577 (store a_576 i20 e20)))
(assert (= a_578 (store a1 i4 e4)))
(assert (= a_579 (store a_578 i17 e17)))
(assert (= a_580 (store a_579 i7 e7)))
(assert (= a_581 (store a_580 i8 e8)))
(assert (= a_582 (store a_581 i3 e3)))
(assert (= a_583 (store a_582 i18 e18)))
(assert (= a_584 (store a_583 i14 e14)))
(assert (= a_585 (store a_584 i11 e11)))
(assert (= a_586 (store a_585 i15 e15)))
(assert (= a_587 (store a_586 i10 e10)))
(assert (= a_588 (store a_587 i16 e16)))
(assert (= a_589 (store a_588 i19 e19)))
(assert (= a_590 (store a_589 i1 e1)))
(assert (= a_591 (store a_590 i12 e12)))
(assert (= a_592 (store a_591 i5 e5)))
(assert (= a_593 (store a_592 i6 e6)))
(assert (= a_594 (store a_593 i2 e2)))
(assert (= a_595 (store a_594 i20 e20)))
(assert (= a_596 (store a_595 i9 e9)))
(assert (= a_597 (store a_596 i13 e13)))
(assert (not (= i19 i20)))
(assert (not (= i18 i20)))
(assert (not (= i18 i19)))
(assert (not (= i17 i20)))
(assert (not (= i17 i19)))
(assert (not (= i17 i18)))
(assert (not (= i16 i20)))
(assert (not (= i16 i19)))
(assert (not (= i16 i18)))
(assert (not (= i16 i17)))
(assert (not (= i15 i20)))
(assert (not (= i15 i19)))
(assert (not (= i15 i18)))
(assert (not (= i15 i17)))
(assert (not (= i15 i16)))
(assert (not (= i14 i20)))
(assert (not (= i14 i19)))
(assert (not (= i14 i18)))
(assert (not (= i14 i17)))
(assert (not (= i14 i16)))
(assert (not (= i14 i15)))
(assert (not (= i13 i20)))
(assert (not (= i13 i19)))
(assert (not (= i13 i18)))
(assert (not (= i13 i17)))
(assert (not (= i13 i16)))
(assert (not (= i13 i15)))
(assert (not (= i13 i14)))
(assert (not (= i12 i20)))
(assert (not (= i12 i19)))
(assert (not (= i12 i18)))
(assert (not (= i12 i17)))
(assert (not (= i12 i16)))
(assert (not (= i12 i15)))
(assert (not (= i12 i14)))
(assert (not (= i12 i13)))
(assert (not (= i11 i20)))
(assert (not (= i11 i19)))
(assert (not (= i11 i18)))
(assert (not (= i11 i17)))
(assert (not (= i11 i16)))
(assert (not (= i11 i15)))
(assert (not (= i11 i14)))
(assert (not (= i11 i13)))
(assert (not (= i11 i12)))
(assert (not (= i10 i20)))
(assert (not (= i10 i19)))
(assert (not (= i10 i18)))
(assert (not (= i10 i17)))
(assert (not (= i10 i16)))
(assert (not (= i10 i15)))
(assert (not (= i10 i14)))
(assert (not (= i10 i13)))
(assert (not (= i10 i12)))
(assert (not (= i10 i11)))
(assert (not (= i9 i20)))
(assert (not (= i9 i19)))
(assert (not (= i9 i18)))
(assert (not (= i9 i17)))
(assert (not (= i9 i16)))
(assert (not (= i9 i15)))
(assert (not (= i9 i14)))
(assert (not (= i9 i13)))
(assert (not (= i9 i12)))
(assert (not (= i9 i11)))
(assert (not (= i9 i10)))
(assert (not (= i8 i20)))
(assert (not (= i8 i19)))
(assert (not (= i8 i18)))
(assert (not (= i8 i17)))
(assert (not (= i8 i16)))
(assert (not (= i8 i15)))
(assert (not (= i8 i14)))
(assert (not (= i8 i13)))
(assert (not (= i8 i12)))
(assert (not (= i8 i11)))
(assert (not (= i8 i10)))
(assert (not (= i8 i9)))
(assert (not (= i7 i20)))
(assert (not (= i7 i19)))
(assert (not (= i7 i18)))
(assert (not (= i7 i17)))
(assert (not (= i7 i16)))
(assert (not (= i7 i15)))
(assert (not (= i7 i14)))
(assert (not (= i7 i13)))
(assert (not (= i7 i12)))
(assert (not (= i7 i11)))
(assert (not (= i7 i10)))
(assert (not (= i7 i9)))
(assert (not (= i7 i8)))
(assert (not (= i6 i20)))
(assert (not (= i6 i19)))
(assert (not (= i6 i18)))
(assert (not (= i6 i17)))
(assert (not (= i6 i16)))
(assert (not (= i6 i15)))
(assert (not (= i6 i14)))
(assert (not (= i6 i13)))
(assert (not (= i6 i12)))
(assert (not (= i6 i11)))
(assert (not (= i6 i10)))
(assert (not (= i6 i9)))
(assert (not (= i6 i8)))
(assert (not (= i6 i7)))
(assert (not (= i5 i20)))
(assert (not (= i5 i19)))
(assert (not (= i5 i18)))
(assert (not (= i5 i17)))
(assert (not (= i5 i16)))
(assert (not (= i5 i15)))
(assert (not (= i5 i14)))
(assert (not (= i5 i13)))
(assert (not (= i5 i12)))
(assert (not (= i5 i11)))
(assert (not (= i5 i10)))
(assert (not (= i5 i9)))
(assert (not (= i5 i8)))
(assert (not (= i5 i7)))
(assert (not (= i5 i6)))
(assert (not (= i4 i20)))
(assert (not (= i4 i19)))
(assert (not (= i4 i18)))
(assert (not (= i4 i17)))
(assert (not (= i4 i16)))
(assert (not (= i4 i15)))
(assert (not (= i4 i14)))
(assert (not (= i4 i13)))
(assert (not (= i4 i12)))
(assert (not (= i4 i11)))
(assert (not (= i4 i10)))
(assert (not (= i4 i9)))
(assert (not (= i4 i8)))
(assert (not (= i4 i7)))
(assert (not (= i4 i6)))
(assert (not (= i4 i5)))
(assert (not (= i3 i20)))
(assert (not (= i3 i19)))
(assert (not (= i3 i18)))
(assert (not (= i3 i17)))
(assert (not (= i3 i16)))
(assert (not (= i3 i15)))
(assert (not (= i3 i14)))
(assert (not (= i3 i13)))
(assert (not (= i3 i12)))
(assert (not (= i3 i11)))
(assert (not (= i3 i10)))
(assert (not (= i3 i9)))
(assert (not (= i3 i8)))
(assert (not (= i3 i7)))
(assert (not (= i3 i6)))
(assert (not (= i3 i5)))
(assert (not (= i3 i4)))
(assert (not (= i2 i20)))
(assert (not (= i2 i19)))
(assert (not (= i2 i18)))
(assert (not (= i2 i17)))
(assert (not (= i2 i16)))
(assert (not (= i2 i15)))
(assert (not (= i2 i14)))
(assert (not (= i2 i13)))
(assert (not (= i2 i12)))
(assert (not (= i2 i11)))
(assert (not (= i2 i10)))
(assert (not (= i2 i9)))
(assert (not (= i2 i8)))
(assert (not (= i2 i7)))
(assert (not (= i2 i6)))
(assert (not (= i2 i5)))
(assert (not (= i2 i4)))
(assert (not (= i2 i3)))
(assert (not (= i1 i20)))
(assert (not (= i1 i19)))
(assert (not (= i1 i18)))
(assert (not (= i1 i17)))
(assert (not (= i1 i16)))
(assert (not (= i1 i15)))
(assert (not (= i1 i14)))
(assert (not (= i1 i13)))
(assert (not (= i1 i12)))
(assert (not (= i1 i11)))
(assert (not (= i1 i10)))
(assert (not (= i1 i9)))
(assert (not (= i1 i8)))
(assert (not (= i1 i7)))
(assert (not (= i1 i6)))
(assert (not (= i1 i5)))
(assert (not (= i1 i4)))
(assert (not (= i1 i3)))
(assert (not (= i1 i2)))
(assert (not (= a_577 a_597)))
(check-sat)
(exit)
